&bands
   prefix = 'InP_example',
   outdir = './tmp/InP_example',
   filband = './outputs/InP_example/InP_example.bands.dat'
/

K_POINTS crystal
100
0.500000 0.250000 0.750000 1
0.500000 0.263158 0.736842 1
0.500000 0.276316 0.723684 1
0.500000 0.289474 0.710526 1
0.500000 0.302632 0.697368 1
0.500000 0.315789 0.684211 1
0.500000 0.328947 0.671053 1
0.500000 0.342105 0.657895 1
0.500000 0.355263 0.644737 1
0.500000 0.368421 0.631579 1
0.500000 0.381579 0.618421 1
0.500000 0.394737 0.605263 1
0.500000 0.407895 0.592105 1
0.500000 0.421053 0.578947 1
0.500000 0.434211 0.565789 1
0.500000 0.447368 0.552632 1
0.500000 0.460526 0.539474 1
0.500000 0.473684 0.526316 1
0.500000 0.486842 0.513158 1
0.500000 0.500000 0.500000 1
0.500000 0.500000 0.500000 1
0.473684 0.473684 0.473684 1
0.447368 0.447368 0.447368 1
0.421053 0.421053 0.421053 1
0.394737 0.394737 0.394737 1
0.368421 0.368421 0.368421 1
0.342105 0.342105 0.342105 1
0.315789 0.315789 0.315789 1
0.289474 0.289474 0.289474 1
0.263158 0.263158 0.263158 1
0.236842 0.236842 0.236842 1
0.210526 0.210526 0.210526 1
0.184211 0.184211 0.184211 1
0.157895 0.157895 0.157895 1
0.131579 0.131579 0.131579 1
0.105263 0.105263 0.105263 1
0.078947 0.078947 0.078947 1
0.052632 0.052632 0.052632 1
0.026316 0.026316 0.026316 1
0.000000 0.000000 0.000000 1
0.000000 0.000000 0.000000 1
0.026316 0.000000 0.026316 1
0.052632 0.000000 0.052632 1
0.078947 0.000000 0.078947 1
0.105263 0.000000 0.105263 1
0.131579 0.000000 0.131579 1
0.157895 0.000000 0.157895 1
0.184211 0.000000 0.184211 1
0.210526 0.000000 0.210526 1
0.236842 0.000000 0.236842 1
0.263158 0.000000 0.263158 1
0.289474 0.000000 0.289474 1
0.315789 0.000000 0.315789 1
0.342105 0.000000 0.342105 1
0.368421 0.000000 0.368421 1
0.394737 0.000000 0.394737 1
0.421053 0.000000 0.421053 1
0.447368 0.000000 0.447368 1
0.473684 0.000000 0.473684 1
0.500000 0.000000 0.500000 1
0.500000 0.000000 0.500000 1
0.500000 0.013158 0.513158 1
0.500000 0.026316 0.526316 1
0.500000 0.039474 0.539474 1
0.500000 0.052632 0.552632 1
0.500000 0.065789 0.565789 1
0.500000 0.078947 0.578947 1
0.500000 0.092105 0.592105 1
0.500000 0.105263 0.605263 1
0.500000 0.118421 0.618421 1
0.500000 0.131579 0.631579 1
0.500000 0.144737 0.644737 1
0.500000 0.157895 0.657895 1
0.500000 0.171053 0.671053 1
0.500000 0.184211 0.684211 1
0.500000 0.197368 0.697368 1
0.500000 0.210526 0.710526 1
0.500000 0.223684 0.723684 1
0.500000 0.236842 0.736842 1
0.500000 0.250000 0.750000 1
0.500000 0.250000 0.750000 1
0.493421 0.256579 0.750000 1
0.486842 0.263158 0.750000 1
0.480263 0.269737 0.750000 1
0.473684 0.276316 0.750000 1
0.467105 0.282895 0.750000 1
0.460526 0.289474 0.750000 1
0.453947 0.296053 0.750000 1
0.447368 0.302632 0.750000 1
0.440789 0.309211 0.750000 1
0.434211 0.315789 0.750000 1
0.427632 0.322368 0.750000 1
0.421053 0.328947 0.750000 1
0.414474 0.335526 0.750000 1
0.407895 0.342105 0.750000 1
0.401316 0.348684 0.750000 1
0.394737 0.355263 0.750000 1
0.388158 0.361842 0.750000 1
0.381579 0.368421 0.750000 1
0.375000 0.375000 0.750000 1
! Path: W → L → Γ → X → W → K
